138
1 19
2 33
3 64
4 85
5 99
6 112
7 132
8 3
9 11
10 46
11 53
12 74
13 91
14 108
15 115
16 19
17 33
18 51
19 64
20 70
21 85
22 99
23 32
24 41
25 63
26 84
27 98
28 122
29 0
30 8
31 16
32 24
33 105
34 129
35 49
36 56
37 70
38 77
39 91
40 114
41 123
----------
%%%mzn-stat initTime=0.003133
%%%mzn-stat solveTime=180.001
%%%mzn-stat solutions=3
%%%mzn-stat variables=592
%%%mzn-stat propagators=428
%%%mzn-stat propagations=247127157
%%%mzn-stat nodes=4687917
%%%mzn-stat failures=2343938
%%%mzn-stat restarts=0
%%%mzn-stat peakDepth=52
%%%mzn-stat-end
